c Generated map
c Size: 13 * 13, weights in range: 1 to 10, walls: True, with ratio 0.4
c dim 2 of 3
c
p sp 169 114
c graph contains 169 nodes and 114 arcs
c
a 1 14 7
a 14 1 7
a 5 6 7
a 6 5 7
a 8 21 5
a 21 8 5
a 12 13 10
a 13 12 10
a 13 26 5
a 26 13 5
a 14 15 1
a 15 14 1
a 15 28 5
a 28 15 5
a 17 30 3
a 30 17 3
a 21 34 7
a 34 21 7
a 24 37 7
a 37 24 7
a 28 41 6
a 41 28 6
a 28 29 9
a 29 28 9
a 29 42 5
a 42 29 5
a 29 30 1
a 30 29 1
a 30 43 9
a 43 30 9
a 30 31 1
a 31 30 1
a 31 44 2
a 44 31 2
a 31 32 2
a 32 31 2
a 32 45 6
a 45 32 6
a 34 35 5
a 35 34 5
a 35 48 4
a 48 35 4
a 35 36 9
a 36 35 9
a 36 37 10
a 37 36 10
a 37 50 5
a 50 37 5
a 37 38 5
a 38 37 5
a 38 51 5
a 51 38 5
a 40 53 1
a 53 40 1
a 40 41 1
a 41 40 1
a 41 54 9
a 54 41 9
a 41 42 2
a 42 41 2
a 42 43 10
a 43 42 10
a 43 56 2
a 56 43 2
a 43 44 6
a 44 43 6
a 44 45 10
a 45 44 10
a 45 58 10
a 58 45 10
a 50 51 3
a 51 50 3
a 51 64 5
a 64 51 5
a 53 66 3
a 66 53 3
a 53 54 1
a 54 53 1
a 58 59 3
a 59 58 3
a 64 77 9
a 77 64 9
a 64 65 10
a 65 64 10
a 65 78 6
a 78 65 6
a 66 79 1
a 79 66 1
a 75 88 2
a 88 75 2
a 75 76 10
a 76 75 10
a 76 77 2
a 77 76 2
a 77 90 6
a 90 77 6
a 77 78 10
a 78 77 10
a 83 96 10
a 96 83 10
a 85 98 9
a 98 85 9
a 87 88 3
a 88 87 3
a 88 101 5
a 101 88 5
a 90 103 3
a 103 90 3
a 96 109 9
a 109 96 9
a 98 111 6
a 111 98 6
a 101 114 10
a 114 101 10
a 101 102 2
a 102 101 2
a 102 115 6
a 115 102 6
a 102 103 5
a 103 102 5
a 103 104 5
a 104 103 5
a 104 117 2
a 117 104 2
a 105 106 5
a 106 105 5
a 108 109 2
a 109 108 2
a 109 122 1
a 122 109 1
a 111 124 4
a 124 111 4
a 111 112 5
a 112 111 5
a 112 125 10
a 125 112 10
a 112 113 3
a 113 112 3
a 113 114 10
a 114 113 10
a 114 127 1
a 127 114 1
a 114 115 4
a 115 114 4
a 122 135 8
a 135 122 8
a 122 123 4
a 123 122 4
a 123 136 1
a 136 123 1
a 123 124 8
a 124 123 8
a 124 125 6
a 125 124 6
a 125 138 6
a 138 125 6
a 127 140 7
a 140 127 7
a 132 145 3
a 145 132 3
a 132 133 4
a 133 132 4
a 133 146 8
a 146 133 8
a 133 134 5
a 134 133 5
a 134 135 5
a 135 134 5
a 135 148 9
a 148 135 9
a 135 136 2
a 136 135 2
a 138 151 4
a 151 138 4
a 138 139 9
a 139 138 9
a 139 152 9
a 152 139 9
a 139 140 9
a 140 139 9
a 140 153 1
a 153 140 1
a 143 156 4
a 156 143 4
a 144 145 7
a 145 144 7
a 145 158 7
a 158 145 7
a 145 146 8
a 146 145 8
a 146 159 7
a 159 146 7
a 150 163 4
a 163 150 4
a 150 151 4
a 151 150 4
a 151 164 10
a 164 151 10
a 151 152 2
a 152 151 2
a 152 165 6
a 165 152 6
a 152 153 7
a 153 152 7
a 153 166 9
a 166 153 9
a 153 154 5
a 154 153 5
a 154 155 6
a 155 154 6
a 155 168 9
a 168 155 9
a 155 156 8
a 156 155 8
a 156 169 10
a 169 156 10
a 158 159 9
a 159 158 9
a 159 160 4
a 160 159 4
a 163 164 9
a 164 163 9
a 164 165 10
a 165 164 10
a 165 166 3
a 166 165 3
a 168 169 2
a 169 168 2
